p cnf 7230 17
-826 -909 -912 0
-910 912 0
-399 -822 906 0
822 -906 0
-401 -828 -907 0
401 -908 0
909 910 0
907 908 0
826 -910 0
828 -908 0
911 912 0
650 -912 0
-650 -911 0
820 -914 0
652 -914 0
905 906 0
-905 -906 0
